Maximize
  - 2.9714898180372 edge_0_1_0_0 - 1.6734051242038 edge_0_2_0_0
   - 0.20218482866418 edge_0_3_0_0 - 4.0501027569387 edge_0_4_0_0
   - 3.0347211385884 edge_0_5_0_0 - 5.1664053845958 edge_0_6_0_0
   - 4.2058642567066 edge_0_7_0_0 - 5.0777061782598 edge_0_8_0_0
   - 4.1316890083944 edge_0_10_0_0 - 4.8921408080475 edge_0_13_0_0
   - 0.806941 edge_0_14_0_0 - 5.9222860912886 edge_0_16_0_0
   + 0.2296413198757706 edge_1_2_0_0 + 0.3169815832232419 edge_1_3_0_0
   - 0.3173844219499622 edge_1_5_0_0 - 0.4733734626360027 edge_1_10_0_0
   + 0.0147996424726029 edge_1_11_0_0 + 1.107974263789575 edge_1_16_0_0
   + 0.1412078142963474 edge_2_1_0_0 + 0.1907503580717201 edge_2_3_0_0
   - 0.1585945412811555 edge_2_4_0_0 - 0.2008025990541452 edge_2_5_0_0
   - 0.8746612054632935 edge_2_8_0_0 - 0.4925530351289317 edge_2_10_0_0
   - 0.1213004654670723 edge_2_11_0_0 - 0.28652609188814 edge_2_14_0_0
   + 0.5715105757935225 edge_2_16_0_0 + 0.6432031453183363 edge_3_1_0_0
   + 3.487291832273 edge_3_2_0_0 + 3.083194441677 edge_3_4_0_0
   + 1.77599481408 edge_3_5_0_0 + 1.439050717879 edge_3_6_0_0
   + 0.89659534952664 edge_3_7_0_0 + 2.0793145982598 edge_3_8_0_0
   + 0.4838486928053802 edge_3_9_0_0 + 1.561902290730967 edge_3_10_0_0
   + 1.707258157670799 edge_3_11_0_0 + 1.5021452939487 edge_3_12_0_0
   + 0.27023551065847 edge_3_13_0_0 + 1.0890920292816 edge_3_14_0_0
   + 0.2307201176801832 edge_3_15_0_0 + 3.127821495327081 edge_3_16_0_0
   + 1.596989545592839 edge_4_2_0_0 + 1.2421590793269 edge_4_3_0_0
   + 0.735642217658512 edge_4_5_0_0 + 0.8899394363983563 edge_4_6_0_0
   + 0.2135236566161561 edge_4_7_0_0 + 1.444619777855628 edge_4_8_0_0
   - 0.1453112045964625 edge_4_10_0_0 + 0.5216184540927213 edge_4_11_0_0
   + 1.395622781022857 edge_4_12_0_0 - 0.319587610194799 edge_4_13_0_0
   - 0.1595510574757737 edge_4_14_0_0 + 0.0641417597774056 edge_4_16_0_0
   - 0.1716296645904712 edge_5_1_0_0 + 0.1472685202020253 edge_5_2_0_0
   + 1.3611560254128 edge_5_3_0_0 + 0.5852373488149114 edge_5_4_0_0
   + 1.722809484179417 edge_5_6_0_0 + 0.6204749840068762 edge_5_7_0_0
   + 1.242160042005886 edge_5_8_0_0 + 0.418112319910567 edge_5_9_0_0
   + 1.10114042644493 edge_5_10_0_0 + 1.026910013074806 edge_5_11_0_0
   + 1.357239598755299 edge_5_12_0_0 - 0.2287957793926429 edge_5_13_0_0
   + 0.7278193328969321 edge_5_14_0_0 - 0.3465690704557469 edge_5_15_0_0
   + 1.685903964445449 edge_5_16_0_0 - 1.481462041574675 edge_6_4_0_0
   - 0.7234327167490188 edge_6_5_0_0 - 0.5921319321705157 edge_6_7_0_0
   - 0.6953598303911827 edge_6_8_0_0 - 0.046275768514239 edge_7_2_0_0
   - 0.65577756535558 edge_7_3_0_0 - 0.4240320379428019 edge_7_4_0_0
   + 0.7402240680912696 edge_7_5_0_0 + 0.8584856037636101 edge_7_6_0_0
   + 2.542645314215097 edge_7_8_0_0 + 0.4958443713754833 edge_7_9_0_0
   + 1.440448640975043 edge_7_10_0_0 + 0.8188290642253856 edge_7_11_0_0
   + 1.299791608374761 edge_7_12_0_0 + 0.9019823762816848 edge_7_13_0_0
   + 0.0412178552840529 edge_7_14_0_0 - 0.0080045989541114 edge_7_16_0_0
   + 0.031035986495647 edge_8_1_0_0 - 0.2609328022919971 edge_8_2_0_0
   - 0.3863946060071444 edge_8_3_0_0 - 1.555203785704167 edge_8_4_0_0
   + 0.4428904184538538 edge_8_5_0_0 - 0.8321908229924957 edge_8_6_0_0
   - 0.1076304598805877 edge_8_7_0_0 + 0.7855780118407658 edge_8_9_0_0
   + 0.6033065755085637 edge_8_10_0_0 + 0.4530707566420113 edge_8_11_0_0
   + 0.7412201929987604 edge_8_12_0_0 - 0.317605552047074 edge_8_13_0_0
   - 0.065885649181038 edge_8_14_0_0 - 0.4345988012501627 edge_8_15_0_0
   + 0.2843044187152109 edge_8_16_0_0 - 0.2171149826547023 edge_9_5_0_0
   + 0.4067068606897266 edge_9_8_0_0 + 0.0981659287655688 edge_9_11_0_0
   + 0.264320707085343 edge_9_12_0_0 - 0.693880675851126 edge_9_13_0_0
   - 0.17706853382424 edge_9_14_0_0 - 0.6503213608136397 edge_10_1_0_0
   - 0.3825301212699598 edge_10_2_0_0 - 0.1062520239699253 edge_10_3_0_0
   - 0.8565452437174321 edge_10_4_0_0 + 0.5923162215907197 edge_10_5_0_0
   - 0.2888881009198991 edge_10_6_0_0 + 0.2821931021826592 edge_10_7_0_0
   + 2.173657808775835 edge_10_8_0_0 + 3.131899274430802 edge_10_9_0_0
   + 1.457572024240785 edge_10_11_0_0 + 0.8487243070311669 edge_10_12_0_0
   + 0.187668671170741 edge_10_13_0_0 + 0.8970738223209 edge_10_14_0_0
   - 0.5221589965732257 edge_10_15_0_0 + 1.598589218080756 edge_10_16_0_0
   - 1.571457691842765 edge_11_1_0_0 - 1.034128340636959 edge_11_2_0_0
   - 0.9263288202814569 edge_11_3_0_0 - 0.6643056925731885 edge_11_5_0_0
   - 0.5451236888791887 edge_11_8_0_0 - 0.3484196701945248 edge_11_9_0_0
   - 0.6198470660728832 edge_11_10_0_0 + 0.5582252463348805 edge_11_12_0_0
   + 0.17082237719069 edge_11_13_0_0 + 0.23952196676223 edge_11_14_0_0
   - 0.2557068846000446 edge_11_15_0_0 - 2.2697511906219 edge_12_3_0_0
   - 1.131333400207186 edge_12_5_0_0 - 1.517134097462644 edge_12_6_0_0
   - 1.204198432024834 edge_12_8_0_0 - 1.46231143888997 edge_12_10_0_0
   - 0.4031082922467802 edge_12_11_0_0 + 0.223276804440908 edge_12_13_0_0
   - 0.176067103383 edge_12_14_0_0 - 0.2598746339723028 edge_12_15_0_0
   - 0.4120693932267109 edge_12_16_0_0 - 3.0486496545477 edge_13_3_0_0
   - 2.336030643998502 edge_13_5_0_0 - 1.786250088423466 edge_13_7_0_0
   - 1.433599921601781 edge_13_8_0_0 - 2.244883328686272 edge_13_10_0_0
   - 1.434564817036557 edge_13_11_0_0 - 0.5752001946855204 edge_13_12_0_0
   + 0.6270126717808356 edge_13_14_0_0 + 0.357873391977504 edge_13_15_0_0
   + 0.3307602790818528 edge_13_16_0_0 - 1.032753724986 edge_14_1_0_0
   - 0.18005904068724 edge_14_2_0_0 + 0.49717141397484 edge_14_3_0_0
   - 0.4016872014808989 edge_14_4_0_0 + 0.4385638482904 edge_14_5_0_0
   - 0.1854251512186977 edge_14_6_0_0 + 0.3973906810810897 edge_14_7_0_0
   + 0.27835344879876 edge_14_8_0_0 + 0.14779966111476 edge_14_9_0_0
   + 0.39889302973092 edge_14_10_0_0 + 1.3512719600973 edge_14_11_0_0
   + 0.8437029659031999 edge_14_12_0_0 + 3.122660492588137 edge_14_13_0_0
   + 3.3623255732821 edge_14_15_0_0 + 2.92549842023 edge_14_16_0_0
   - 0.6095262539581937 edge_15_3_0_0 - 0.6375019314159539 edge_15_8_0_0
   - 0.7109588449044136 edge_15_10_0_0 - 0.2308780454012327 edge_15_12_0_0
   + 0.0220029970406391 edge_15_13_0_0 + 0.5565622874255325 edge_15_16_0_0
   - 0.6156935217887874 edge_16_14_0_0 - 0.947016664772415 edge_16_15_0_0
Subject To
 one_parent_1: edge_0_1_0_0 + edge_2_1_0_0 + edge_3_1_0_0 + edge_5_1_0_0
   + edge_8_1_0_0 + edge_10_1_0_0 + edge_11_1_0_0 + edge_14_1_0_0 = 1
 consume_one_flow_unit_1: flow_0_1_0_0 - flow_1_2_0_0 - flow_1_3_0_0
   - flow_1_5_0_0 - flow_1_10_0_0 - flow_1_11_0_0 - flow_1_16_0_0
   + flow_2_1_0_0 + flow_3_1_0_0 + flow_5_1_0_0 + flow_8_1_0_0
   + flow_10_1_0_0 + flow_11_1_0_0 + flow_14_1_0_0 = 1
 one_parent_2: edge_0_2_0_0 + edge_1_2_0_0 + edge_3_2_0_0 + edge_4_2_0_0
   + edge_5_2_0_0 + edge_7_2_0_0 + edge_8_2_0_0 + edge_10_2_0_0
   + edge_11_2_0_0 + edge_14_2_0_0 = 1
 consume_one_flow_unit_2: flow_0_2_0_0 + flow_1_2_0_0 - flow_2_1_0_0
   - flow_2_3_0_0 - flow_2_4_0_0 - flow_2_5_0_0 - flow_2_8_0_0
   - flow_2_10_0_0 - flow_2_11_0_0 - flow_2_14_0_0 - flow_2_16_0_0
   + flow_3_2_0_0 + flow_4_2_0_0 + flow_5_2_0_0 + flow_7_2_0_0
   + flow_8_2_0_0 + flow_10_2_0_0 + flow_11_2_0_0 + flow_14_2_0_0 = 1
 one_parent_3: edge_0_3_0_0 + edge_1_3_0_0 + edge_2_3_0_0 + edge_4_3_0_0
   + edge_5_3_0_0 + edge_7_3_0_0 + edge_8_3_0_0 + edge_10_3_0_0
   + edge_11_3_0_0 + edge_12_3_0_0 + edge_13_3_0_0 + edge_14_3_0_0
   + edge_15_3_0_0 = 1
 consume_one_flow_unit_3: flow_0_3_0_0 + flow_1_3_0_0 + flow_2_3_0_0
   - flow_3_1_0_0 - flow_3_2_0_0 - flow_3_4_0_0 - flow_3_5_0_0
   - flow_3_6_0_0 - flow_3_7_0_0 - flow_3_8_0_0 - flow_3_9_0_0
   - flow_3_10_0_0 - flow_3_11_0_0 - flow_3_12_0_0 - flow_3_13_0_0
   - flow_3_14_0_0 - flow_3_15_0_0 - flow_3_16_0_0 + flow_4_3_0_0
   + flow_5_3_0_0 + flow_7_3_0_0 + flow_8_3_0_0 + flow_10_3_0_0
   + flow_11_3_0_0 + flow_12_3_0_0 + flow_13_3_0_0 + flow_14_3_0_0
   + flow_15_3_0_0 = 1
 one_parent_4: edge_0_4_0_0 + edge_2_4_0_0 + edge_3_4_0_0 + edge_5_4_0_0
   + edge_6_4_0_0 + edge_7_4_0_0 + edge_8_4_0_0 + edge_10_4_0_0
   + edge_14_4_0_0 = 1
 consume_one_flow_unit_4: flow_0_4_0_0 + flow_2_4_0_0 + flow_3_4_0_0
   - flow_4_2_0_0 - flow_4_3_0_0 - flow_4_5_0_0 - flow_4_6_0_0
   - flow_4_7_0_0 - flow_4_8_0_0 - flow_4_10_0_0 - flow_4_11_0_0
   - flow_4_12_0_0 - flow_4_13_0_0 - flow_4_14_0_0 - flow_4_16_0_0
   + flow_5_4_0_0 + flow_6_4_0_0 + flow_7_4_0_0 + flow_8_4_0_0
   + flow_10_4_0_0 + flow_14_4_0_0 = 1
 one_parent_5: edge_0_5_0_0 + edge_1_5_0_0 + edge_2_5_0_0 + edge_3_5_0_0
   + edge_4_5_0_0 + edge_6_5_0_0 + edge_7_5_0_0 + edge_8_5_0_0
   + edge_9_5_0_0 + edge_10_5_0_0 + edge_11_5_0_0 + edge_12_5_0_0
   + edge_13_5_0_0 + edge_14_5_0_0 = 1
 consume_one_flow_unit_5: flow_0_5_0_0 + flow_1_5_0_0 + flow_2_5_0_0
   + flow_3_5_0_0 + flow_4_5_0_0 - flow_5_1_0_0 - flow_5_2_0_0
   - flow_5_3_0_0 - flow_5_4_0_0 - flow_5_6_0_0 - flow_5_7_0_0
   - flow_5_8_0_0 - flow_5_9_0_0 - flow_5_10_0_0 - flow_5_11_0_0
   - flow_5_12_0_0 - flow_5_13_0_0 - flow_5_14_0_0 - flow_5_15_0_0
   - flow_5_16_0_0 + flow_6_5_0_0 + flow_7_5_0_0 + flow_8_5_0_0
   + flow_9_5_0_0 + flow_10_5_0_0 + flow_11_5_0_0 + flow_12_5_0_0
   + flow_13_5_0_0 + flow_14_5_0_0 = 1
 one_parent_6: edge_0_6_0_0 + edge_3_6_0_0 + edge_4_6_0_0 + edge_5_6_0_0
   + edge_7_6_0_0 + edge_8_6_0_0 + edge_10_6_0_0 + edge_12_6_0_0
   + edge_14_6_0_0 = 1
 consume_one_flow_unit_6: flow_0_6_0_0 + flow_3_6_0_0 + flow_4_6_0_0
   + flow_5_6_0_0 - flow_6_4_0_0 - flow_6_5_0_0 - flow_6_7_0_0
   - flow_6_8_0_0 + flow_7_6_0_0 + flow_8_6_0_0 + flow_10_6_0_0
   + flow_12_6_0_0 + flow_14_6_0_0 = 1
 one_parent_7: edge_0_7_0_0 + edge_3_7_0_0 + edge_4_7_0_0 + edge_5_7_0_0
   + edge_6_7_0_0 + edge_8_7_0_0 + edge_10_7_0_0 + edge_13_7_0_0
   + edge_14_7_0_0 = 1
 consume_one_flow_unit_7: flow_0_7_0_0 + flow_3_7_0_0 + flow_4_7_0_0
   + flow_5_7_0_0 + flow_6_7_0_0 - flow_7_2_0_0 - flow_7_3_0_0
   - flow_7_4_0_0 - flow_7_5_0_0 - flow_7_6_0_0 - flow_7_8_0_0
   - flow_7_9_0_0 - flow_7_10_0_0 - flow_7_11_0_0 - flow_7_12_0_0
   - flow_7_13_0_0 - flow_7_14_0_0 - flow_7_16_0_0 + flow_8_7_0_0
   + flow_10_7_0_0 + flow_13_7_0_0 + flow_14_7_0_0 = 1
 one_parent_8: edge_0_8_0_0 + edge_2_8_0_0 + edge_3_8_0_0 + edge_4_8_0_0
   + edge_5_8_0_0 + edge_6_8_0_0 + edge_7_8_0_0 + edge_9_8_0_0
   + edge_10_8_0_0 + edge_11_8_0_0 + edge_12_8_0_0 + edge_13_8_0_0
   + edge_14_8_0_0 + edge_15_8_0_0 = 1
 consume_one_flow_unit_8: flow_0_8_0_0 + flow_2_8_0_0 + flow_3_8_0_0
   + flow_4_8_0_0 + flow_5_8_0_0 + flow_6_8_0_0 + flow_7_8_0_0
   - flow_8_1_0_0 - flow_8_2_0_0 - flow_8_3_0_0 - flow_8_4_0_0
   - flow_8_5_0_0 - flow_8_6_0_0 - flow_8_7_0_0 - flow_8_9_0_0
   - flow_8_10_0_0 - flow_8_11_0_0 - flow_8_12_0_0 - flow_8_13_0_0
   - flow_8_14_0_0 - flow_8_15_0_0 - flow_8_16_0_0 + flow_9_8_0_0
   + flow_10_8_0_0 + flow_11_8_0_0 + flow_12_8_0_0 + flow_13_8_0_0
   + flow_14_8_0_0 + flow_15_8_0_0 = 1
 one_parent_9: edge_3_9_0_0 + edge_5_9_0_0 + edge_7_9_0_0 + edge_8_9_0_0
   + edge_10_9_0_0 + edge_11_9_0_0 + edge_14_9_0_0 = 1
 consume_one_flow_unit_9: flow_3_9_0_0 + flow_5_9_0_0 + flow_7_9_0_0
   + flow_8_9_0_0 - flow_9_5_0_0 - flow_9_8_0_0 - flow_9_11_0_0
   - flow_9_12_0_0 - flow_9_13_0_0 - flow_9_14_0_0 + flow_10_9_0_0
   + flow_11_9_0_0 + flow_14_9_0_0 = 1
 one_parent_10: edge_0_10_0_0 + edge_1_10_0_0 + edge_2_10_0_0
   + edge_3_10_0_0 + edge_4_10_0_0 + edge_5_10_0_0 + edge_7_10_0_0
   + edge_8_10_0_0 + edge_11_10_0_0 + edge_12_10_0_0 + edge_13_10_0_0
   + edge_14_10_0_0 + edge_15_10_0_0 = 1
 consume_one_flow_unit_10: flow_0_10_0_0 + flow_1_10_0_0 + flow_2_10_0_0
   + flow_3_10_0_0 + flow_4_10_0_0 + flow_5_10_0_0 + flow_7_10_0_0
   + flow_8_10_0_0 - flow_10_1_0_0 - flow_10_2_0_0 - flow_10_3_0_0
   - flow_10_4_0_0 - flow_10_5_0_0 - flow_10_6_0_0 - flow_10_7_0_0
   - flow_10_8_0_0 - flow_10_9_0_0 - flow_10_11_0_0 - flow_10_12_0_0
   - flow_10_13_0_0 - flow_10_14_0_0 - flow_10_15_0_0 - flow_10_16_0_0
   + flow_11_10_0_0 + flow_12_10_0_0 + flow_13_10_0_0 + flow_14_10_0_0
   + flow_15_10_0_0 = 1
 one_parent_11: edge_1_11_0_0 + edge_2_11_0_0 + edge_3_11_0_0
   + edge_4_11_0_0 + edge_5_11_0_0 + edge_7_11_0_0 + edge_8_11_0_0
   + edge_9_11_0_0 + edge_10_11_0_0 + edge_12_11_0_0 + edge_13_11_0_0
   + edge_14_11_0_0 = 1
 consume_one_flow_unit_11: flow_1_11_0_0 + flow_2_11_0_0 + flow_3_11_0_0
   + flow_4_11_0_0 + flow_5_11_0_0 + flow_7_11_0_0 + flow_8_11_0_0
   + flow_9_11_0_0 + flow_10_11_0_0 - flow_11_1_0_0 - flow_11_2_0_0
   - flow_11_3_0_0 - flow_11_5_0_0 - flow_11_8_0_0 - flow_11_9_0_0
   - flow_11_10_0_0 - flow_11_12_0_0 - flow_11_13_0_0 - flow_11_14_0_0
   - flow_11_15_0_0 + flow_12_11_0_0 + flow_13_11_0_0 + flow_14_11_0_0 = 1
 one_parent_12: edge_3_12_0_0 + edge_4_12_0_0 + edge_5_12_0_0
   + edge_7_12_0_0 + edge_8_12_0_0 + edge_9_12_0_0 + edge_10_12_0_0
   + edge_11_12_0_0 + edge_13_12_0_0 + edge_14_12_0_0 + edge_15_12_0_0 = 1
 consume_one_flow_unit_12: flow_3_12_0_0 + flow_4_12_0_0 + flow_5_12_0_0
   + flow_7_12_0_0 + flow_8_12_0_0 + flow_9_12_0_0 + flow_10_12_0_0
   + flow_11_12_0_0 - flow_12_3_0_0 - flow_12_5_0_0 - flow_12_6_0_0
   - flow_12_8_0_0 - flow_12_10_0_0 - flow_12_11_0_0 - flow_12_13_0_0
   - flow_12_14_0_0 - flow_12_15_0_0 - flow_12_16_0_0 + flow_13_12_0_0
   + flow_14_12_0_0 + flow_15_12_0_0 = 1
 one_parent_13: edge_0_13_0_0 + edge_3_13_0_0 + edge_4_13_0_0
   + edge_5_13_0_0 + edge_7_13_0_0 + edge_8_13_0_0 + edge_9_13_0_0
   + edge_10_13_0_0 + edge_11_13_0_0 + edge_12_13_0_0 + edge_14_13_0_0
   + edge_15_13_0_0 = 1
 consume_one_flow_unit_13: flow_0_13_0_0 + flow_3_13_0_0 + flow_4_13_0_0
   + flow_5_13_0_0 + flow_7_13_0_0 + flow_8_13_0_0 + flow_9_13_0_0
   + flow_10_13_0_0 + flow_11_13_0_0 + flow_12_13_0_0 - flow_13_3_0_0
   - flow_13_5_0_0 - flow_13_7_0_0 - flow_13_8_0_0 - flow_13_10_0_0
   - flow_13_11_0_0 - flow_13_12_0_0 - flow_13_14_0_0 - flow_13_15_0_0
   - flow_13_16_0_0 + flow_14_13_0_0 + flow_15_13_0_0 = 1
 one_parent_14: edge_0_14_0_0 + edge_2_14_0_0 + edge_3_14_0_0
   + edge_4_14_0_0 + edge_5_14_0_0 + edge_7_14_0_0 + edge_8_14_0_0
   + edge_9_14_0_0 + edge_10_14_0_0 + edge_11_14_0_0 + edge_12_14_0_0
   + edge_13_14_0_0 + edge_16_14_0_0 = 1
 consume_one_flow_unit_14: flow_0_14_0_0 + flow_2_14_0_0 + flow_3_14_0_0
   + flow_4_14_0_0 + flow_5_14_0_0 + flow_7_14_0_0 + flow_8_14_0_0
   + flow_9_14_0_0 + flow_10_14_0_0 + flow_11_14_0_0 + flow_12_14_0_0
   + flow_13_14_0_0 - flow_14_1_0_0 - flow_14_2_0_0 - flow_14_3_0_0
   - flow_14_4_0_0 - flow_14_5_0_0 - flow_14_6_0_0 - flow_14_7_0_0
   - flow_14_8_0_0 - flow_14_9_0_0 - flow_14_10_0_0 - flow_14_11_0_0
   - flow_14_12_0_0 - flow_14_13_0_0 - flow_14_15_0_0 - flow_14_16_0_0
   + flow_16_14_0_0 = 1
 one_parent_15: edge_3_15_0_0 + edge_5_15_0_0 + edge_8_15_0_0
   + edge_10_15_0_0 + edge_11_15_0_0 + edge_12_15_0_0 + edge_13_15_0_0
   + edge_14_15_0_0 + edge_16_15_0_0 = 1
 consume_one_flow_unit_15: flow_3_15_0_0 + flow_5_15_0_0 + flow_8_15_0_0
   + flow_10_15_0_0 + flow_11_15_0_0 + flow_12_15_0_0 + flow_13_15_0_0
   + flow_14_15_0_0 - flow_15_3_0_0 - flow_15_8_0_0 - flow_15_10_0_0
   - flow_15_12_0_0 - flow_15_13_0_0 - flow_15_16_0_0 + flow_16_15_0_0 = 1
 one_parent_16: edge_0_16_0_0 + edge_1_16_0_0 + edge_2_16_0_0
   + edge_3_16_0_0 + edge_4_16_0_0 + edge_5_16_0_0 + edge_7_16_0_0
   + edge_8_16_0_0 + edge_10_16_0_0 + edge_12_16_0_0 + edge_13_16_0_0
   + edge_14_16_0_0 + edge_15_16_0_0 = 1
 consume_one_flow_unit_16: flow_0_16_0_0 + flow_1_16_0_0 + flow_2_16_0_0
   + flow_3_16_0_0 + flow_4_16_0_0 + flow_5_16_0_0 + flow_7_16_0_0
   + flow_8_16_0_0 + flow_10_16_0_0 + flow_12_16_0_0 + flow_13_16_0_0
   + flow_14_16_0_0 + flow_15_16_0_0 - flow_16_14_0_0 - flow_16_15_0_0 = 1
 root_flow: flow_0_1_0_0 + flow_0_2_0_0 + flow_0_3_0_0 + flow_0_4_0_0
   + flow_0_5_0_0 + flow_0_6_0_0 + flow_0_7_0_0 + flow_0_8_0_0
   + flow_0_10_0_0 + flow_0_13_0_0 + flow_0_14_0_0 + flow_0_16_0_0 = 16
 inactive_no_flow_0_1_0_0: flow_0_1_0_0 - 1000 edge_0_1_0_0 <= 0
 inactive_no_flow_0_2_0_0: flow_0_2_0_0 - 1000 edge_0_2_0_0 <= 0
 inactive_no_flow_0_3_0_0: flow_0_3_0_0 - 1000 edge_0_3_0_0 <= 0
 inactive_no_flow_0_4_0_0: flow_0_4_0_0 - 1000 edge_0_4_0_0 <= 0
 inactive_no_flow_0_5_0_0: flow_0_5_0_0 - 1000 edge_0_5_0_0 <= 0
 inactive_no_flow_0_6_0_0: flow_0_6_0_0 - 1000 edge_0_6_0_0 <= 0
 inactive_no_flow_0_7_0_0: flow_0_7_0_0 - 1000 edge_0_7_0_0 <= 0
 inactive_no_flow_0_8_0_0: flow_0_8_0_0 - 1000 edge_0_8_0_0 <= 0
 inactive_no_flow_0_10_0_0: flow_0_10_0_0 - 1000 edge_0_10_0_0 <= 0
 inactive_no_flow_0_13_0_0: flow_0_13_0_0 - 1000 edge_0_13_0_0 <= 0
 inactive_no_flow_0_14_0_0: flow_0_14_0_0 - 1000 edge_0_14_0_0 <= 0
 inactive_no_flow_0_16_0_0: flow_0_16_0_0 - 1000 edge_0_16_0_0 <= 0
 inactive_no_flow_1_2_0_0: flow_1_2_0_0 - 1000 edge_1_2_0_0 <= 0
 inactive_no_flow_1_3_0_0: flow_1_3_0_0 - 1000 edge_1_3_0_0 <= 0
 inactive_no_flow_1_5_0_0: flow_1_5_0_0 - 1000 edge_1_5_0_0 <= 0
 inactive_no_flow_1_10_0_0: flow_1_10_0_0 - 1000 edge_1_10_0_0 <= 0
 inactive_no_flow_1_11_0_0: flow_1_11_0_0 - 1000 edge_1_11_0_0 <= 0
 inactive_no_flow_1_16_0_0: flow_1_16_0_0 - 1000 edge_1_16_0_0 <= 0
 inactive_no_flow_2_1_0_0: flow_2_1_0_0 - 1000 edge_2_1_0_0 <= 0
 inactive_no_flow_2_3_0_0: flow_2_3_0_0 - 1000 edge_2_3_0_0 <= 0
 inactive_no_flow_2_4_0_0: flow_2_4_0_0 - 1000 edge_2_4_0_0 <= 0
 inactive_no_flow_2_5_0_0: flow_2_5_0_0 - 1000 edge_2_5_0_0 <= 0
 inactive_no_flow_2_8_0_0: flow_2_8_0_0 - 1000 edge_2_8_0_0 <= 0
 inactive_no_flow_2_10_0_0: flow_2_10_0_0 - 1000 edge_2_10_0_0 <= 0
 inactive_no_flow_2_11_0_0: flow_2_11_0_0 - 1000 edge_2_11_0_0 <= 0
 inactive_no_flow_2_14_0_0: flow_2_14_0_0 - 1000 edge_2_14_0_0 <= 0
 inactive_no_flow_2_16_0_0: flow_2_16_0_0 - 1000 edge_2_16_0_0 <= 0
 inactive_no_flow_3_1_0_0: flow_3_1_0_0 - 1000 edge_3_1_0_0 <= 0
 inactive_no_flow_3_2_0_0: flow_3_2_0_0 - 1000 edge_3_2_0_0 <= 0
 inactive_no_flow_3_4_0_0: flow_3_4_0_0 - 1000 edge_3_4_0_0 <= 0
 inactive_no_flow_3_5_0_0: flow_3_5_0_0 - 1000 edge_3_5_0_0 <= 0
 inactive_no_flow_3_6_0_0: flow_3_6_0_0 - 1000 edge_3_6_0_0 <= 0
 inactive_no_flow_3_7_0_0: flow_3_7_0_0 - 1000 edge_3_7_0_0 <= 0
 inactive_no_flow_3_8_0_0: flow_3_8_0_0 - 1000 edge_3_8_0_0 <= 0
 inactive_no_flow_3_9_0_0: flow_3_9_0_0 - 1000 edge_3_9_0_0 <= 0
 inactive_no_flow_3_10_0_0: flow_3_10_0_0 - 1000 edge_3_10_0_0 <= 0
 inactive_no_flow_3_11_0_0: flow_3_11_0_0 - 1000 edge_3_11_0_0 <= 0
 inactive_no_flow_3_12_0_0: flow_3_12_0_0 - 1000 edge_3_12_0_0 <= 0
 inactive_no_flow_3_13_0_0: flow_3_13_0_0 - 1000 edge_3_13_0_0 <= 0
 inactive_no_flow_3_14_0_0: flow_3_14_0_0 - 1000 edge_3_14_0_0 <= 0
 inactive_no_flow_3_15_0_0: flow_3_15_0_0 - 1000 edge_3_15_0_0 <= 0
 inactive_no_flow_3_16_0_0: flow_3_16_0_0 - 1000 edge_3_16_0_0 <= 0
 inactive_no_flow_4_2_0_0: flow_4_2_0_0 - 1000 edge_4_2_0_0 <= 0
 inactive_no_flow_4_3_0_0: flow_4_3_0_0 - 1000 edge_4_3_0_0 <= 0
 inactive_no_flow_4_5_0_0: flow_4_5_0_0 - 1000 edge_4_5_0_0 <= 0
 inactive_no_flow_4_6_0_0: flow_4_6_0_0 - 1000 edge_4_6_0_0 <= 0
 inactive_no_flow_4_7_0_0: flow_4_7_0_0 - 1000 edge_4_7_0_0 <= 0
 inactive_no_flow_4_8_0_0: flow_4_8_0_0 - 1000 edge_4_8_0_0 <= 0
 inactive_no_flow_4_10_0_0: flow_4_10_0_0 - 1000 edge_4_10_0_0 <= 0
 inactive_no_flow_4_11_0_0: flow_4_11_0_0 - 1000 edge_4_11_0_0 <= 0
 inactive_no_flow_4_12_0_0: flow_4_12_0_0 - 1000 edge_4_12_0_0 <= 0
 inactive_no_flow_4_13_0_0: flow_4_13_0_0 - 1000 edge_4_13_0_0 <= 0
 inactive_no_flow_4_14_0_0: flow_4_14_0_0 - 1000 edge_4_14_0_0 <= 0
 inactive_no_flow_4_16_0_0: flow_4_16_0_0 - 1000 edge_4_16_0_0 <= 0
 inactive_no_flow_5_1_0_0: flow_5_1_0_0 - 1000 edge_5_1_0_0 <= 0
 inactive_no_flow_5_2_0_0: flow_5_2_0_0 - 1000 edge_5_2_0_0 <= 0
 inactive_no_flow_5_3_0_0: flow_5_3_0_0 - 1000 edge_5_3_0_0 <= 0
 inactive_no_flow_5_4_0_0: flow_5_4_0_0 - 1000 edge_5_4_0_0 <= 0
 inactive_no_flow_5_6_0_0: flow_5_6_0_0 - 1000 edge_5_6_0_0 <= 0
 inactive_no_flow_5_7_0_0: flow_5_7_0_0 - 1000 edge_5_7_0_0 <= 0
 inactive_no_flow_5_8_0_0: flow_5_8_0_0 - 1000 edge_5_8_0_0 <= 0
 inactive_no_flow_5_9_0_0: flow_5_9_0_0 - 1000 edge_5_9_0_0 <= 0
 inactive_no_flow_5_10_0_0: flow_5_10_0_0 - 1000 edge_5_10_0_0 <= 0
 inactive_no_flow_5_11_0_0: flow_5_11_0_0 - 1000 edge_5_11_0_0 <= 0
 inactive_no_flow_5_12_0_0: flow_5_12_0_0 - 1000 edge_5_12_0_0 <= 0
 inactive_no_flow_5_13_0_0: flow_5_13_0_0 - 1000 edge_5_13_0_0 <= 0
 inactive_no_flow_5_14_0_0: flow_5_14_0_0 - 1000 edge_5_14_0_0 <= 0
 inactive_no_flow_5_15_0_0: flow_5_15_0_0 - 1000 edge_5_15_0_0 <= 0
 inactive_no_flow_5_16_0_0: flow_5_16_0_0 - 1000 edge_5_16_0_0 <= 0
 inactive_no_flow_6_4_0_0: flow_6_4_0_0 - 1000 edge_6_4_0_0 <= 0
 inactive_no_flow_6_5_0_0: flow_6_5_0_0 - 1000 edge_6_5_0_0 <= 0
 inactive_no_flow_6_7_0_0: flow_6_7_0_0 - 1000 edge_6_7_0_0 <= 0
 inactive_no_flow_6_8_0_0: flow_6_8_0_0 - 1000 edge_6_8_0_0 <= 0
 inactive_no_flow_7_2_0_0: flow_7_2_0_0 - 1000 edge_7_2_0_0 <= 0
 inactive_no_flow_7_3_0_0: flow_7_3_0_0 - 1000 edge_7_3_0_0 <= 0
 inactive_no_flow_7_4_0_0: flow_7_4_0_0 - 1000 edge_7_4_0_0 <= 0
 inactive_no_flow_7_5_0_0: flow_7_5_0_0 - 1000 edge_7_5_0_0 <= 0
 inactive_no_flow_7_6_0_0: flow_7_6_0_0 - 1000 edge_7_6_0_0 <= 0
 inactive_no_flow_7_8_0_0: flow_7_8_0_0 - 1000 edge_7_8_0_0 <= 0
 inactive_no_flow_7_9_0_0: flow_7_9_0_0 - 1000 edge_7_9_0_0 <= 0
 inactive_no_flow_7_10_0_0: flow_7_10_0_0 - 1000 edge_7_10_0_0 <= 0
 inactive_no_flow_7_11_0_0: flow_7_11_0_0 - 1000 edge_7_11_0_0 <= 0
 inactive_no_flow_7_12_0_0: flow_7_12_0_0 - 1000 edge_7_12_0_0 <= 0
 inactive_no_flow_7_13_0_0: flow_7_13_0_0 - 1000 edge_7_13_0_0 <= 0
 inactive_no_flow_7_14_0_0: flow_7_14_0_0 - 1000 edge_7_14_0_0 <= 0
 inactive_no_flow_7_16_0_0: flow_7_16_0_0 - 1000 edge_7_16_0_0 <= 0
 inactive_no_flow_8_1_0_0: flow_8_1_0_0 - 1000 edge_8_1_0_0 <= 0
 inactive_no_flow_8_2_0_0: flow_8_2_0_0 - 1000 edge_8_2_0_0 <= 0
 inactive_no_flow_8_3_0_0: flow_8_3_0_0 - 1000 edge_8_3_0_0 <= 0
 inactive_no_flow_8_4_0_0: flow_8_4_0_0 - 1000 edge_8_4_0_0 <= 0
 inactive_no_flow_8_5_0_0: flow_8_5_0_0 - 1000 edge_8_5_0_0 <= 0
 inactive_no_flow_8_6_0_0: flow_8_6_0_0 - 1000 edge_8_6_0_0 <= 0
 inactive_no_flow_8_7_0_0: flow_8_7_0_0 - 1000 edge_8_7_0_0 <= 0
 inactive_no_flow_8_9_0_0: flow_8_9_0_0 - 1000 edge_8_9_0_0 <= 0
 inactive_no_flow_8_10_0_0: flow_8_10_0_0 - 1000 edge_8_10_0_0 <= 0
 inactive_no_flow_8_11_0_0: flow_8_11_0_0 - 1000 edge_8_11_0_0 <= 0
 inactive_no_flow_8_12_0_0: flow_8_12_0_0 - 1000 edge_8_12_0_0 <= 0
 inactive_no_flow_8_13_0_0: flow_8_13_0_0 - 1000 edge_8_13_0_0 <= 0
 inactive_no_flow_8_14_0_0: flow_8_14_0_0 - 1000 edge_8_14_0_0 <= 0
 inactive_no_flow_8_15_0_0: flow_8_15_0_0 - 1000 edge_8_15_0_0 <= 0
 inactive_no_flow_8_16_0_0: flow_8_16_0_0 - 1000 edge_8_16_0_0 <= 0
 inactive_no_flow_9_5_0_0: flow_9_5_0_0 - 1000 edge_9_5_0_0 <= 0
 inactive_no_flow_9_8_0_0: flow_9_8_0_0 - 1000 edge_9_8_0_0 <= 0
 inactive_no_flow_9_11_0_0: flow_9_11_0_0 - 1000 edge_9_11_0_0 <= 0
 inactive_no_flow_9_12_0_0: flow_9_12_0_0 - 1000 edge_9_12_0_0 <= 0
 inactive_no_flow_9_13_0_0: flow_9_13_0_0 - 1000 edge_9_13_0_0 <= 0
 inactive_no_flow_9_14_0_0: flow_9_14_0_0 - 1000 edge_9_14_0_0 <= 0
 inactive_no_flow_10_1_0_0: flow_10_1_0_0 - 1000 edge_10_1_0_0 <= 0
 inactive_no_flow_10_2_0_0: flow_10_2_0_0 - 1000 edge_10_2_0_0 <= 0
 inactive_no_flow_10_3_0_0: flow_10_3_0_0 - 1000 edge_10_3_0_0 <= 0
 inactive_no_flow_10_4_0_0: flow_10_4_0_0 - 1000 edge_10_4_0_0 <= 0
 inactive_no_flow_10_5_0_0: flow_10_5_0_0 - 1000 edge_10_5_0_0 <= 0
 inactive_no_flow_10_6_0_0: flow_10_6_0_0 - 1000 edge_10_6_0_0 <= 0
 inactive_no_flow_10_7_0_0: flow_10_7_0_0 - 1000 edge_10_7_0_0 <= 0
 inactive_no_flow_10_8_0_0: flow_10_8_0_0 - 1000 edge_10_8_0_0 <= 0
 inactive_no_flow_10_9_0_0: flow_10_9_0_0 - 1000 edge_10_9_0_0 <= 0
 inactive_no_flow_10_11_0_0: flow_10_11_0_0 - 1000 edge_10_11_0_0 <= 0
 inactive_no_flow_10_12_0_0: flow_10_12_0_0 - 1000 edge_10_12_0_0 <= 0
 inactive_no_flow_10_13_0_0: flow_10_13_0_0 - 1000 edge_10_13_0_0 <= 0
 inactive_no_flow_10_14_0_0: flow_10_14_0_0 - 1000 edge_10_14_0_0 <= 0
 inactive_no_flow_10_15_0_0: flow_10_15_0_0 - 1000 edge_10_15_0_0 <= 0
 inactive_no_flow_10_16_0_0: flow_10_16_0_0 - 1000 edge_10_16_0_0 <= 0
 inactive_no_flow_11_1_0_0: flow_11_1_0_0 - 1000 edge_11_1_0_0 <= 0
 inactive_no_flow_11_2_0_0: flow_11_2_0_0 - 1000 edge_11_2_0_0 <= 0
 inactive_no_flow_11_3_0_0: flow_11_3_0_0 - 1000 edge_11_3_0_0 <= 0
 inactive_no_flow_11_5_0_0: flow_11_5_0_0 - 1000 edge_11_5_0_0 <= 0
 inactive_no_flow_11_8_0_0: flow_11_8_0_0 - 1000 edge_11_8_0_0 <= 0
 inactive_no_flow_11_9_0_0: flow_11_9_0_0 - 1000 edge_11_9_0_0 <= 0
 inactive_no_flow_11_10_0_0: flow_11_10_0_0 - 1000 edge_11_10_0_0 <= 0
 inactive_no_flow_11_12_0_0: flow_11_12_0_0 - 1000 edge_11_12_0_0 <= 0
 inactive_no_flow_11_13_0_0: flow_11_13_0_0 - 1000 edge_11_13_0_0 <= 0
 inactive_no_flow_11_14_0_0: flow_11_14_0_0 - 1000 edge_11_14_0_0 <= 0
 inactive_no_flow_11_15_0_0: flow_11_15_0_0 - 1000 edge_11_15_0_0 <= 0
 inactive_no_flow_12_3_0_0: flow_12_3_0_0 - 1000 edge_12_3_0_0 <= 0
 inactive_no_flow_12_5_0_0: flow_12_5_0_0 - 1000 edge_12_5_0_0 <= 0
 inactive_no_flow_12_6_0_0: flow_12_6_0_0 - 1000 edge_12_6_0_0 <= 0
 inactive_no_flow_12_8_0_0: flow_12_8_0_0 - 1000 edge_12_8_0_0 <= 0
 inactive_no_flow_12_10_0_0: flow_12_10_0_0 - 1000 edge_12_10_0_0 <= 0
 inactive_no_flow_12_11_0_0: flow_12_11_0_0 - 1000 edge_12_11_0_0 <= 0
 inactive_no_flow_12_13_0_0: flow_12_13_0_0 - 1000 edge_12_13_0_0 <= 0
 inactive_no_flow_12_14_0_0: flow_12_14_0_0 - 1000 edge_12_14_0_0 <= 0
 inactive_no_flow_12_15_0_0: flow_12_15_0_0 - 1000 edge_12_15_0_0 <= 0
 inactive_no_flow_12_16_0_0: flow_12_16_0_0 - 1000 edge_12_16_0_0 <= 0
 inactive_no_flow_13_3_0_0: flow_13_3_0_0 - 1000 edge_13_3_0_0 <= 0
 inactive_no_flow_13_5_0_0: flow_13_5_0_0 - 1000 edge_13_5_0_0 <= 0
 inactive_no_flow_13_7_0_0: flow_13_7_0_0 - 1000 edge_13_7_0_0 <= 0
 inactive_no_flow_13_8_0_0: flow_13_8_0_0 - 1000 edge_13_8_0_0 <= 0
 inactive_no_flow_13_10_0_0: flow_13_10_0_0 - 1000 edge_13_10_0_0 <= 0
 inactive_no_flow_13_11_0_0: flow_13_11_0_0 - 1000 edge_13_11_0_0 <= 0
 inactive_no_flow_13_12_0_0: flow_13_12_0_0 - 1000 edge_13_12_0_0 <= 0
 inactive_no_flow_13_14_0_0: flow_13_14_0_0 - 1000 edge_13_14_0_0 <= 0
 inactive_no_flow_13_15_0_0: flow_13_15_0_0 - 1000 edge_13_15_0_0 <= 0
 inactive_no_flow_13_16_0_0: flow_13_16_0_0 - 1000 edge_13_16_0_0 <= 0
 inactive_no_flow_14_1_0_0: flow_14_1_0_0 - 1000 edge_14_1_0_0 <= 0
 inactive_no_flow_14_2_0_0: flow_14_2_0_0 - 1000 edge_14_2_0_0 <= 0
 inactive_no_flow_14_3_0_0: flow_14_3_0_0 - 1000 edge_14_3_0_0 <= 0
 inactive_no_flow_14_4_0_0: flow_14_4_0_0 - 1000 edge_14_4_0_0 <= 0
 inactive_no_flow_14_5_0_0: flow_14_5_0_0 - 1000 edge_14_5_0_0 <= 0
 inactive_no_flow_14_6_0_0: flow_14_6_0_0 - 1000 edge_14_6_0_0 <= 0
 inactive_no_flow_14_7_0_0: flow_14_7_0_0 - 1000 edge_14_7_0_0 <= 0
 inactive_no_flow_14_8_0_0: flow_14_8_0_0 - 1000 edge_14_8_0_0 <= 0
 inactive_no_flow_14_9_0_0: flow_14_9_0_0 - 1000 edge_14_9_0_0 <= 0
 inactive_no_flow_14_10_0_0: flow_14_10_0_0 - 1000 edge_14_10_0_0 <= 0
 inactive_no_flow_14_11_0_0: flow_14_11_0_0 - 1000 edge_14_11_0_0 <= 0
 inactive_no_flow_14_12_0_0: flow_14_12_0_0 - 1000 edge_14_12_0_0 <= 0
 inactive_no_flow_14_13_0_0: flow_14_13_0_0 - 1000 edge_14_13_0_0 <= 0
 inactive_no_flow_14_15_0_0: flow_14_15_0_0 - 1000 edge_14_15_0_0 <= 0
 inactive_no_flow_14_16_0_0: flow_14_16_0_0 - 1000 edge_14_16_0_0 <= 0
 inactive_no_flow_15_3_0_0: flow_15_3_0_0 - 1000 edge_15_3_0_0 <= 0
 inactive_no_flow_15_8_0_0: flow_15_8_0_0 - 1000 edge_15_8_0_0 <= 0
 inactive_no_flow_15_10_0_0: flow_15_10_0_0 - 1000 edge_15_10_0_0 <= 0
 inactive_no_flow_15_12_0_0: flow_15_12_0_0 - 1000 edge_15_12_0_0 <= 0
 inactive_no_flow_15_13_0_0: flow_15_13_0_0 - 1000 edge_15_13_0_0 <= 0
 inactive_no_flow_15_16_0_0: flow_15_16_0_0 - 1000 edge_15_16_0_0 <= 0
 inactive_no_flow_16_14_0_0: flow_16_14_0_0 - 1000 edge_16_14_0_0 <= 0
 inactive_no_flow_16_15_0_0: flow_16_15_0_0 - 1000 edge_16_15_0_0 <= 0
Bounds
Binaries
 edge_0_1_0_0 edge_0_2_0_0 edge_0_3_0_0 edge_0_4_0_0 edge_0_5_0_0
 edge_0_6_0_0 edge_0_7_0_0 edge_0_8_0_0 edge_0_10_0_0 edge_0_13_0_0
 edge_0_14_0_0 edge_0_16_0_0 edge_1_2_0_0 edge_1_3_0_0 edge_1_5_0_0
 edge_1_10_0_0 edge_1_11_0_0 edge_1_16_0_0 edge_2_1_0_0 edge_2_3_0_0
 edge_2_4_0_0 edge_2_5_0_0 edge_2_8_0_0 edge_2_10_0_0 edge_2_11_0_0
 edge_2_14_0_0 edge_2_16_0_0 edge_3_1_0_0 edge_3_2_0_0 edge_3_4_0_0
 edge_3_5_0_0 edge_3_6_0_0 edge_3_7_0_0 edge_3_8_0_0 edge_3_9_0_0
 edge_3_10_0_0 edge_3_11_0_0 edge_3_12_0_0 edge_3_13_0_0 edge_3_14_0_0
 edge_3_15_0_0 edge_3_16_0_0 edge_4_2_0_0 edge_4_3_0_0 edge_4_5_0_0
 edge_4_6_0_0 edge_4_7_0_0 edge_4_8_0_0 edge_4_10_0_0 edge_4_11_0_0
 edge_4_12_0_0 edge_4_13_0_0 edge_4_14_0_0 edge_4_16_0_0 edge_5_1_0_0
 edge_5_2_0_0 edge_5_3_0_0 edge_5_4_0_0 edge_5_6_0_0 edge_5_7_0_0
 edge_5_8_0_0 edge_5_9_0_0 edge_5_10_0_0 edge_5_11_0_0 edge_5_12_0_0
 edge_5_13_0_0 edge_5_14_0_0 edge_5_15_0_0 edge_5_16_0_0 edge_6_4_0_0
 edge_6_5_0_0 edge_6_7_0_0 edge_6_8_0_0 edge_7_2_0_0 edge_7_3_0_0
 edge_7_4_0_0 edge_7_5_0_0 edge_7_6_0_0 edge_7_8_0_0 edge_7_9_0_0
 edge_7_10_0_0 edge_7_11_0_0 edge_7_12_0_0 edge_7_13_0_0 edge_7_14_0_0
 edge_7_16_0_0 edge_8_1_0_0 edge_8_2_0_0 edge_8_3_0_0 edge_8_4_0_0
 edge_8_5_0_0 edge_8_6_0_0 edge_8_7_0_0 edge_8_9_0_0 edge_8_10_0_0
 edge_8_11_0_0 edge_8_12_0_0 edge_8_13_0_0 edge_8_14_0_0 edge_8_15_0_0
 edge_8_16_0_0 edge_9_5_0_0 edge_9_8_0_0 edge_9_11_0_0 edge_9_12_0_0
 edge_9_13_0_0 edge_9_14_0_0 edge_10_1_0_0 edge_10_2_0_0 edge_10_3_0_0
 edge_10_4_0_0 edge_10_5_0_0 edge_10_6_0_0 edge_10_7_0_0 edge_10_8_0_0
 edge_10_9_0_0 edge_10_11_0_0 edge_10_12_0_0 edge_10_13_0_0 edge_10_14_0_0
 edge_10_15_0_0 edge_10_16_0_0 edge_11_1_0_0 edge_11_2_0_0 edge_11_3_0_0
 edge_11_5_0_0 edge_11_8_0_0 edge_11_9_0_0 edge_11_10_0_0 edge_11_12_0_0
 edge_11_13_0_0 edge_11_14_0_0 edge_11_15_0_0 edge_12_3_0_0 edge_12_5_0_0
 edge_12_6_0_0 edge_12_8_0_0 edge_12_10_0_0 edge_12_11_0_0 edge_12_13_0_0
 edge_12_14_0_0 edge_12_15_0_0 edge_12_16_0_0 edge_13_3_0_0 edge_13_5_0_0
 edge_13_7_0_0 edge_13_8_0_0 edge_13_10_0_0 edge_13_11_0_0 edge_13_12_0_0
 edge_13_14_0_0 edge_13_15_0_0 edge_13_16_0_0 edge_14_1_0_0 edge_14_2_0_0
 edge_14_3_0_0 edge_14_4_0_0 edge_14_5_0_0 edge_14_6_0_0 edge_14_7_0_0
 edge_14_8_0_0 edge_14_9_0_0 edge_14_10_0_0 edge_14_11_0_0 edge_14_12_0_0
 edge_14_13_0_0 edge_14_15_0_0 edge_14_16_0_0 edge_15_3_0_0 edge_15_8_0_0
 edge_15_10_0_0 edge_15_12_0_0 edge_15_13_0_0 edge_15_16_0_0 edge_16_14_0_0
 edge_16_15_0_0
End
